\ Model Simple Maximizer
\ LP format - for model browsing. Use MPS format to capture full model detail.
Maximize
  2 x[1] + 3 x[2]
Subject To
 c_1: x[1] + 2 x[2] <= 6
 c_2: 2 x[1] + x[2] <= 8
Bounds
End
